letting n =  10
letting blocks =  [[1, 6], [1, 7], [1, 8], [1, 9], [1, 10], [2, 2], [2, 7], [3, 1], [3, 4], [3, 8], [3, 9], [3, 10], [4, 6], [4, 8], [4, 9], [4, 10], [5, 2], [5, 3], [5, 5], [5, 6], [5, 7], [5, 8], [6, 3], [6, 4], [6, 9], [7, 2], [7, 4], [7, 6], [8, 1], [8, 3], [8, 4], [8, 7], [8, 9], [9, 3], [9, 5], [9, 6], [9, 7], [9, 8], [9, 10], [10, 4], [10, 6], [10, 7]]
